20	5
0	8	10	4	3	2	9	5	6	1
1	1	14
2	2	12	13
3	1	19
4	1	15
5	0
6	1	13
7	1	16
8	1	20
9	1	8
10	1	18
11	2	12	15
12	2	7	14
13	1	21
14	1	21
15	1	21
16	1	21
17	1	21
18	1	21
19	1	21
20	1	21
21	0
0	0	0	0	0	0	0
1	1	2	5	0	0	5
2	9	1	2	2	2	5
3	6	1	0	4	0	0
4	1	4	5	1	4	0
5	5	0	1	0	3	0
6	3	0	5	3	5	3
7	8	0	2	0	0	0
8	9	2	0	0	3	0
9	4	2	0	0	0	0
10	2	0	4	1	2	3
11	5	0	3	2	2	0
12	8	5	3	2	1	0
13	5	0	0	2	0	0
14	10	1	5	0	0	0
15	1	0	4	4	5	2
16	9	0	0	0	0	4
17	5	3	3	2	3	0
18	2	5	0	0	0	0
19	4	0	3	0	0	0
20	7	0	0	0	0	5
21	0	0	0	0	0	0
10	9	11	9	8
